WARNING: for repeatability, setting FPU to use double precision
============================[ Problem Statistics ]=============================
|                                                                             |
|  Number of variables:        380969                                         |
|  Number of clauses:          925430                                         |
|  Parse time:                   0.30 s                                       |
|                                                                             |
============================[ Search Statistics ]==============================
| Conflicts |          ORIGINAL         |          LEARNT          | Progress |
|           |    Vars  Clauses Literals |    Limit  Clauses Lit/Cl |          |
===============================================================================
|       100 |  216974   894549  2006972 |   328001      100     20 | 43.047 % |
|       250 |  216974   894549  2006972 |   360801      250     28 | 43.047 % |
|       475 |  216974   894549  2006972 |   396881      475     33 | 43.047 % |
|       812 |  216967   894502  2006874 |   436569      811     33 | 43.049 % |
|      1318 |  216967   894502  2006874 |   480226     1317     34 | 43.049 % |
|      2077 |  216967   894502  2006874 |   528249     2076     39 | 43.049 % |
|      3216 |  216967   894502  2006874 |   581074     3215     55 | 43.049 % |
|      4924 |  216967   894502  2006874 |   639181     4923     59 | 43.049 % |
|      7486 |  216967   894502  2006874 |   703099     7485     68 | 43.049 % |
|     11330 |  216967   894502  2006874 |   773409    11329     79 | 43.049 % |
|     17096 |  216967   894502  2006874 |   850750    17095     92 | 43.049 % |
|     25745 |  216962   894483  2006833 |   935825    25743     84 | 43.050 % |
|     38719 |  216962   894483  2006833 |  1029408    38717     87 | 43.050 % |
|     58180 |  216962   894483  2006833 |  1132349    58178     88 | 43.050 % |
|     87372 |  216962   894483  2006833 |  1245584    87370    104 | 43.050 % |
|    131161 |  216962   894483  2006833 |  1370142   131159    108 | 43.050 % |
|    196845 |  216962   894483  2006833 |  1507157   196843    116 | 43.050 % |
|    295371 |  216962   894483  2006833 |  1657872   295369    125 | 43.050 % |
|    443160 |  216903   894270  2006373 |  1823660   443059    132 | 43.065 % |
===============================================================================
restarts              : 1370
conflicts             : 640021         (730 /sec)
decisions             : 2630518        (0.00 % random) (2999 /sec)
propagations          : 2402295325     (2738361 /sec)
conflict literals     : 81361910       (28.56 % deleted)
Memory used           : 452.00 MB
CPU time              : 877.275 s

UNSATISFIABLE
